100
128
39
6
16
43
7
26
63
3
2
32
17
34
33
19
5
6
45
5
59
29
17
18
26
27
40
52
51
43
48
50
10
17
51
16
31
15
32
50
21
39
24
42
37
12
7
13
41
22
21
25
51
57
23
20
48
32
17
54
43
30
17
31
25
17
54
60
40
64
39
28
48
25
55
58
30
56
34
39
43
62
38
60
8
60
25
54
26
53
29
48
46
64
63
22
38
51
39
61
35
32